qbf_easy_train/easy_4977_SAT.qdimacs
p cnf 31 89
a 14 22 0
e 1 2 3 4 5 6 7 8 9 10 11 12 13 15 16 17 18 19 20 21 23 24 25 26 27 28 29 30 31 0
3 1 0
3 -2 0
-1 2 -3 0
4 3 0
4 -2 0
-3 2 -4 0
5 4 0
5 3 0
-4 -3 -5 0
-6 1 -7 0
6 -1 -7 0
-6 -1 7 0
6 1 7 0
3 -7 -8 0
-3 7 -8 0
3 7 8 0
-3 -7 8 0
5 8 -9 0
-5 -8 -9 0
5 -8 9 0
-5 8 9 0
10 -3 -11 0
-10 3 -11 0
10 3 11 0
-10 -3 11 0
-12 5 0
-12 -2 0
-5 2 12 0
11 -12 -13 0
-11 12 -13 0
11 12 13 0
-11 -12 13 0
-15 -7 0
-15 -14 0
7 14 15 0
17 -14 -18 0
-17 14 -18 0
17 14 18 0
-17 -14 18 0
16 -18 -19 0
-16 18 -19 0
16 18 19 0
-16 -18 19 0
20 -15 0
20 19 0
15 -19 -20 0
-4 18 -21 0
4 -18 -21 0
-4 -18 21 0
4 18 21 0
-22 -6 0
-22 16 0
6 -16 22 0
-23 21 0
-23 22 0
-21 -22 23 0
24 20 0
24 23 0
-20 -23 -24 0
-25 13 0
-25 -24 0
-13 24 25 0
9 -25 -26 0
-9 25 -26 0
9 25 26 0
-9 -25 26 0
27 10 0
27 5 0
-10 -5 -27 0
16 -28 -29 0
-16 28 -29 0
16 28 29 0
-16 -28 29 0
27 -29 -30 0
-27 29 -30 0
27 29 30 0
-27 -29 30 0
31 -26 0
31 30 0
26 -30 -31 0
-28 -15 22 3 0
-27 9 7 26 1 16 13 21 0
-8 5 24 -21 0
15 4 26 20 3 1 21 -14 0
28 8 -17 -27 -6 -23 0
2 -25 28 -11 8 -19 13 0
-2 3 31 22 8 -16 6 26 0
23 -3 -20 0
31 0
