sat_easy_train/easy_4977_SAT.dimacs
p cnf 114 376
1 -2 -3 0
-1 2 -3 0
1 2 3 0
-1 -2 3 0
4 -5 -6 0
-4 5 -6 0
4 5 6 0
-4 -5 6 0
-8 -1 0
-8 7 0
1 -7 8 0
8 -9 -10 0
-8 9 -10 0
8 9 10 0
-8 -9 10 0
6 -10 -11 0
-6 10 -11 0
6 10 11 0
-6 -10 11 0
-14 -13 0
-14 5 0
13 -5 14 0
15 -12 0
15 -14 0
12 14 -15 0
17 -16 0
17 -7 0
16 7 -17 0
18 15 0
18 -17 0
-15 17 -18 0
-20 19 0
-20 9 0
-19 -9 20 0
-21 -9 0
-21 9 0
-22 20 0
-22 21 0
-20 -21 22 0
23 -18 0
23 -22 0
18 22 -23 0
-25 -24 0
-25 14 0
24 -14 25 0
26 25 0
26 19 0
-25 -19 -26 0
23 26 -27 0
-23 -26 -27 0
23 -26 27 0
-23 26 27 0
-28 11 0
-28 27 0
-11 -27 28 0
29 5 0
29 4 0
-5 -4 -29 0
30 7 0
30 29 0
-7 -29 -30 0
31 1 -32 0
-31 -1 -32 0
31 -1 32 0
-31 1 32 0
-33 -8 0
-33 -32 0
8 32 33 0
-34 -16 0
-34 -33 0
16 33 34 0
-35 5 0
-35 -1 0
-5 1 35 0
36 -34 0
36 -35 0
34 35 -36 0
37 -4 -38 0
-37 4 -38 0
37 4 38 0
-37 -4 38 0
-39 -17 0
-39 -14 0
17 14 39 0
40 -38 0
40 -39 0
38 39 -40 0
41 36 0
41 -40 0
-36 40 -41 0
-42 5 -43 0
42 -5 -43 0
-42 -5 43 0
42 5 43 0
-44 -43 0
-44 29 0
43 -29 44 0
-45 -5 0
-45 44 0
5 -44 45 0
47 -4 0
47 4 0
-48 -47 0
-48 29 0
47 -29 48 0
-49 9 0
-49 -35 0
-9 35 49 0
50 -2 0
50 8 0
2 -8 -50 0
8 -50 -51 0
-8 50 -51 0
8 50 51 0
-8 -50 51 0
51 -16 -52 0
-51 16 -52 0
51 16 52 0
-51 -16 52 0
53 49 0
53 52 0
-49 -52 -53 0
-54 43 0
-54 19 0
-43 -19 54 0
55 53 0
55 54 0
-53 -54 -55 0
-56 43 0
-56 -32 0
-43 32 56 0
57 44 0
57 -24 0
-44 24 -57 0
58 56 0
58 57 0
-56 -57 -58 0
-59 -7 0
-59 58 0
7 -58 59 0
55 59 -60 0
-55 -59 -60 0
55 -59 60 0
-55 59 60 0
-61 -48 0
-61 60 0
48 -60 61 0
-62 -46 0
-62 -61 0
46 61 62 0
63 45 0
63 -62 0
-45 62 -63 0
64 41 0
64 63 0
-41 -63 -64 0
-65 -30 0
-65 64 0
30 -64 65 0
-28 -65 -66 0
28 65 -66 0
-28 65 66 0
28 -65 66 0
-3 66 -67 0
3 -66 -67 0
-3 -66 67 0
3 66 67 0
-68 34 0
-68 -14 0
-34 14 68 0
69 68 0
69 -5 0
-68 5 -69 0
-70 -37 0
-70 29 0
37 -29 70 0
-70 -44 -71 0
70 44 -71 0
-70 44 71 0
70 -44 71 0
69 -71 -72 0
-69 71 -72 0
69 71 72 0
-69 -71 72 0
73 12 0
73 1 0
-12 -1 -73 0
74 72 0
74 73 0
-72 -73 -74 0
-56 -47 -75 0
56 47 -75 0
-56 47 75 0
56 -47 75 0
-60 75 -76 0
60 -75 -76 0
-60 -75 76 0
60 75 76 0
-77 -74 0
-77 76 0
74 -76 77 0
67 -77 -78 0
-67 77 -78 0
67 77 78 0
-67 -77 78 0
80 52 0
80 -79 0
-52 79 -80 0
-81 12 0
-81 -9 0
-12 9 81 0
-32 -81 -82 0
32 81 -82 0
-32 81 82 0
32 -81 82 0
83 82 0
83 -2 0
-82 2 -83 0
-80 83 -84 0
80 -83 -84 0
-80 -83 84 0
80 83 84 0
85 48 0
85 5 0
-48 -5 -85 0
-86 14 0
-86 12 0
-14 -12 86 0
87 -85 0
87 86 0
85 -86 -87 0
88 -2 0
88 87 0
2 -87 -88 0
31 -88 -89 0
-31 88 -89 0
31 88 89 0
-31 -88 89 0
13 25 -90 0
-13 -25 -90 0
13 -25 90 0
-13 25 90 0
90 -59 -91 0
-90 59 -91 0
90 59 91 0
-90 -59 91 0
-68 -91 -92 0
68 91 -92 0
-68 91 92 0
68 -91 92 0
93 -33 0
93 68 0
33 -68 -93 0
92 -93 -94 0
-92 93 -94 0
92 93 94 0
-92 -93 94 0
89 -94 -95 0
-89 94 -95 0
89 94 95 0
-89 -94 95 0
-84 95 -96 0
84 -95 -96 0
-84 -95 96 0
84 95 96 0
16 -79 -97 0
-16 79 -97 0
16 79 97 0
-16 -79 97 0
98 71 0
98 54 0
-71 -54 -98 0
99 -97 0
99 -98 0
97 98 -99 0
-81 -32 -100 0
81 32 -100 0
-81 32 100 0
81 -32 100 0
-101 -37 0
-101 -43 0
37 43 101 0
102 100 0
102 101 0
-100 -101 -102 0
103 -12 0
103 53 0
12 -53 -103 0
102 -103 -104 0
-102 103 -104 0
102 103 104 0
-102 -103 104 0
-99 -104 -105 0
99 104 -105 0
-99 104 105 0
99 -104 105 0
96 105 -106 0
-96 -105 -106 0
96 -105 106 0
-96 105 106 0
-107 -78 0
-107 -106 0
78 106 107 0
-108 1 0
-108 79 0
-1 -79 108 0
107 -108 -109 0
-107 108 -109 0
107 108 109 0
-107 -108 109 0
-110 -49 0
-110 31 0
49 -31 110 0
38 -110 -111 0
-38 110 -111 0
38 110 111 0
-38 -110 111 0
-112 49 0
-112 -38 0
-49 38 112 0
113 -111 0
113 -112 0
111 112 -113 0
-114 109 0
-114 113 0
-109 -113 114 0
33 -90 0
62 -24 110 0
-9 52 101 -50 -29 0
25 96 -7 -97 26 16 0
-68 -104 -63 83 46 0
57 5 -111 0
-21 -79 -104 17 0
-106 -19 0
-85 -20 7 48 -2 0
-70 -98 -52 0
89 79 -52 0
62 65 -15 0
-88 96 12 -103 80 85 0
-110 7 -24 0
96 67 0
-15 -23 108 -55 -113 0
54 -12 0
62 -24 97 -10 -86 79 0
-27 -90 -82 0
-108 2 -4 -64 0
35 70 3 25 0
-3 -102 -47 33 -14 0
107 52 6 17 0
84 85 0
18 -106 -90 -68 -21 0
22 -62 0
88 -19 47 21 -111 -38 0
-83 -92 0
-54 -108 -110 -92 0
26 30 62 0
-6 41 -70 1 0
-54 -53 -25 46 0
-106 -89 -73 -76 -24 0
-93 100 -24 -9 0
37 75 0
-21 19 91 -13 -58 -20 0
67 93 0
41 -102 112 87 -72 0
96 -56 42 79 7 11 0
-86 -105 24 91 -106 0
-21 54 69 0
-27 22 -70 57 -21 55 0
-31 20 49 0
-78 41 0
-54 -41 55 -108 0
-69 -110 0
101 40 -50 2 -64 0
-87 26 -55 -28 0
11 -106 0
114 0
